c File: flat50_3_0.col
c
c SOURCE: Joseph Culberson (joe@cs.ualberta.ca)
c DESCRIPTION: Quasi-random coloring problem
c              generated with flatness = 0
c                             probability = 0.139
c                             known coloring = 3
c                             random seed = 1974
c              Creation Date:  Tue Jun  9 12:22:30 1998
c Maximum degree = 8 Minimum degree = 0
c p edge 50 115
c cnf created by edge2cnf
p cnf 150 545
-1 -2 0
-1 -3 0
-2 -3 0
1 2 3 0
-4 -5 0
-4 -6 0
-5 -6 0
4 5 6 0
-7 -8 0
-7 -9 0
-8 -9 0
7 8 9 0
-10 -11 0
-10 -12 0
-11 -12 0
10 11 12 0
-13 -14 0
-13 -15 0
-14 -15 0
13 14 15 0
-16 -17 0
-16 -18 0
-17 -18 0
16 17 18 0
-19 -20 0
-19 -21 0
-20 -21 0
19 20 21 0
-22 -23 0
-22 -24 0
-23 -24 0
22 23 24 0
-25 -26 0
-25 -27 0
-26 -27 0
25 26 27 0
-28 -29 0
-28 -30 0
-29 -30 0
28 29 30 0
-31 -32 0
-31 -33 0
-32 -33 0
31 32 33 0
-34 -35 0
-34 -36 0
-35 -36 0
34 35 36 0
-37 -38 0
-37 -39 0
-38 -39 0
37 38 39 0
-40 -41 0
-40 -42 0
-41 -42 0
40 41 42 0
-43 -44 0
-43 -45 0
-44 -45 0
43 44 45 0
-46 -47 0
-46 -48 0
-47 -48 0
46 47 48 0
-49 -50 0
-49 -51 0
-50 -51 0
49 50 51 0
-52 -53 0
-52 -54 0
-53 -54 0
52 53 54 0
-55 -56 0
-55 -57 0
-56 -57 0
55 56 57 0
-58 -59 0
-58 -60 0
-59 -60 0
58 59 60 0
-61 -62 0
-61 -63 0
-62 -63 0
61 62 63 0
-64 -65 0
-64 -66 0
-65 -66 0
64 65 66 0
-67 -68 0
-67 -69 0
-68 -69 0
67 68 69 0
-70 -71 0
-70 -72 0
-71 -72 0
70 71 72 0
-73 -74 0
-73 -75 0
-74 -75 0
73 74 75 0
-76 -77 0
-76 -78 0
-77 -78 0
76 77 78 0
-79 -80 0
-79 -81 0
-80 -81 0
79 80 81 0
-82 -83 0
-82 -84 0
-83 -84 0
82 83 84 0
-85 -86 0
-85 -87 0
-86 -87 0
85 86 87 0
-88 -89 0
-88 -90 0
-89 -90 0
88 89 90 0
-91 -92 0
-91 -93 0
-92 -93 0
91 92 93 0
-94 -95 0
-94 -96 0
-95 -96 0
94 95 96 0
-97 -98 0
-97 -99 0
-98 -99 0
97 98 99 0
-100 -101 0
-100 -102 0
-101 -102 0
100 101 102 0
-103 -104 0
-103 -105 0
-104 -105 0
103 104 105 0
-106 -107 0
-106 -108 0
-107 -108 0
106 107 108 0
-109 -110 0
-109 -111 0
-110 -111 0
109 110 111 0
-112 -113 0
-112 -114 0
-113 -114 0
112 113 114 0
-115 -116 0
-115 -117 0
-116 -117 0
115 116 117 0
-118 -119 0
-118 -120 0
-119 -120 0
118 119 120 0
-121 -122 0
-121 -123 0
-122 -123 0
121 122 123 0
-124 -125 0
-124 -126 0
-125 -126 0
124 125 126 0
-127 -128 0
-127 -129 0
-128 -129 0
127 128 129 0
-130 -131 0
-130 -132 0
-131 -132 0
130 131 132 0
-133 -134 0
-133 -135 0
-134 -135 0
133 134 135 0
-136 -137 0
-136 -138 0
-137 -138 0
136 137 138 0
-139 -140 0
-139 -141 0
-140 -141 0
139 140 141 0
-142 -143 0
-142 -144 0
-143 -144 0
142 143 144 0
-145 -146 0
-145 -147 0
-146 -147 0
145 146 147 0
-148 -149 0
-148 -150 0
-149 -150 0
148 149 150 0
-52 -1 0
-53 -2 0
-54 -3 0
-58 -1 0
-59 -2 0
-60 -3 0
-64 -1 0
-65 -2 0
-66 -3 0
-97 -1 0
-98 -2 0
-99 -3 0
-139 -1 0
-140 -2 0
-141 -3 0
-148 -1 0
-149 -2 0
-150 -3 0
-82 -4 0
-83 -5 0
-84 -6 0
-85 -4 0
-86 -5 0
-87 -6 0
-127 -4 0
-128 -5 0
-129 -6 0
-61 -7 0
-62 -8 0
-63 -9 0
-85 -7 0
-86 -8 0
-87 -9 0
-97 -7 0
-98 -8 0
-99 -9 0
-70 -10 0
-71 -11 0
-72 -12 0
-73 -10 0
-74 -11 0
-75 -12 0
-76 -10 0
-77 -11 0
-78 -12 0
-97 -10 0
-98 -11 0
-99 -12 0
-109 -10 0
-110 -11 0
-111 -12 0
-112 -10 0
-113 -11 0
-114 -12 0
-130 -10 0
-131 -11 0
-132 -12 0
-148 -10 0
-149 -11 0
-150 -12 0
-58 -13 0
-59 -14 0
-60 -15 0
-70 -13 0
-71 -14 0
-72 -15 0
-106 -13 0
-107 -14 0
-108 -15 0
-112 -13 0
-113 -14 0
-114 -15 0
-124 -13 0
-125 -14 0
-126 -15 0
-64 -16 0
-65 -17 0
-66 -18 0
-82 -16 0
-83 -17 0
-84 -18 0
-109 -16 0
-110 -17 0
-111 -18 0
-115 -16 0
-116 -17 0
-117 -18 0
-124 -16 0
-125 -17 0
-126 -18 0
-133 -16 0
-134 -17 0
-135 -18 0
-79 -19 0
-80 -20 0
-81 -21 0
-88 -19 0
-89 -20 0
-90 -21 0
-91 -19 0
-92 -20 0
-93 -21 0
-115 -19 0
-116 -20 0
-117 -21 0
-121 -19 0
-122 -20 0
-123 -21 0
-67 -22 0
-68 -23 0
-69 -24 0
-73 -22 0
-74 -23 0
-75 -24 0
-79 -22 0
-80 -23 0
-81 -24 0
-82 -22 0
-83 -23 0
-84 -24 0
-142 -22 0
-143 -23 0
-144 -24 0
-103 -25 0
-104 -26 0
-105 -27 0
-127 -25 0
-128 -26 0
-129 -27 0
-136 -25 0
-137 -26 0
-138 -27 0
-64 -28 0
-65 -29 0
-66 -30 0
-79 -28 0
-80 -29 0
-81 -30 0
-91 -28 0
-92 -29 0
-93 -30 0
-94 -28 0
-95 -29 0
-96 -30 0
-106 -28 0
-107 -29 0
-108 -30 0
-58 -31 0
-59 -32 0
-60 -33 0
-91 -31 0
-92 -32 0
-93 -33 0
-106 -31 0
-107 -32 0
-108 -33 0
-130 -31 0
-131 -32 0
-132 -33 0
-97 -34 0
-98 -35 0
-99 -36 0
-103 -34 0
-104 -35 0
-105 -36 0
-112 -34 0
-113 -35 0
-114 -36 0
-127 -34 0
-128 -35 0
-129 -36 0
-145 -34 0
-146 -35 0
-147 -36 0
-52 -37 0
-53 -38 0
-54 -39 0
-70 -37 0
-71 -38 0
-72 -39 0
-103 -37 0
-104 -38 0
-105 -39 0
-124 -37 0
-125 -38 0
-126 -39 0
-52 -40 0
-53 -41 0
-54 -42 0
-73 -40 0
-74 -41 0
-75 -42 0
-130 -40 0
-131 -41 0
-132 -42 0
-136 -40 0
-137 -41 0
-138 -42 0
-88 -46 0
-89 -47 0
-90 -48 0
-100 -46 0
-101 -47 0
-102 -48 0
-112 -46 0
-113 -47 0
-114 -48 0
-127 -46 0
-128 -47 0
-129 -48 0
-145 -46 0
-146 -47 0
-147 -48 0
-67 -49 0
-68 -50 0
-69 -51 0
-76 -49 0
-77 -50 0
-78 -51 0
-82 -49 0
-83 -50 0
-84 -51 0
-106 -49 0
-107 -50 0
-108 -51 0
-109 -49 0
-110 -50 0
-111 -51 0
-136 -49 0
-137 -50 0
-138 -51 0
-115 -52 0
-116 -53 0
-117 -54 0
-118 -52 0
-119 -53 0
-120 -54 0
-127 -52 0
-128 -53 0
-129 -54 0
-103 -55 0
-104 -56 0
-105 -57 0
-109 -55 0
-110 -56 0
-111 -57 0
-136 -55 0
-137 -56 0
-138 -57 0
-145 -55 0
-146 -56 0
-147 -57 0
-115 -61 0
-116 -62 0
-117 -63 0
-130 -61 0
-131 -62 0
-132 -63 0
-142 -61 0
-143 -62 0
-144 -63 0
-148 -61 0
-149 -62 0
-150 -63 0
-121 -64 0
-122 -65 0
-123 -66 0
-118 -67 0
-119 -68 0
-120 -69 0
-124 -70 0
-125 -71 0
-126 -72 0
-142 -70 0
-143 -71 0
-144 -72 0
-145 -70 0
-146 -71 0
-147 -72 0
-109 -73 0
-110 -74 0
-111 -75 0
-112 -73 0
-113 -74 0
-114 -75 0
-115 -73 0
-116 -74 0
-117 -75 0
-139 -73 0
-140 -74 0
-141 -75 0
-139 -76 0
-140 -77 0
-141 -78 0
-148 -79 0
-149 -80 0
-150 -81 0
-124 -82 0
-125 -83 0
-126 -84 0
-127 -82 0
-128 -83 0
-129 -84 0
-136 -82 0
-137 -83 0
-138 -84 0
-139 -82 0
-140 -83 0
-141 -84 0
-106 -85 0
-107 -86 0
-108 -87 0
-109 -85 0
-110 -86 0
-111 -87 0
-118 -85 0
-119 -86 0
-120 -87 0
-124 -85 0
-125 -86 0
-126 -87 0
-112 -94 0
-113 -95 0
-114 -96 0
-115 -94 0
-116 -95 0
-117 -96 0
-136 -94 0
-137 -95 0
-138 -96 0
-148 -94 0
-149 -95 0
-150 -96 0
-124 -97 0
-125 -98 0
-126 -99 0
-139 -97 0
-140 -98 0
-141 -99 0
-133 -100 0
-134 -101 0
-135 -102 0
-148 -100 0
-149 -101 0
-150 -102 0
